certificates/rado_a9_c178_N21.cnf
c Rad2 upper bound instance: x1 + 9*x2 - x3 = 178, interval [1,21]
p cnf 21 96
1 3 20 0
-1 -3 -20 0
1 12 21 0
-1 -12 -21 0
2 4 20 0
-2 -4 -20 0
2 13 21 0
-2 -13 -21 0
3 5 20 0
-3 -5 -20 0
3 14 21 0
-3 -14 -21 0
4 6 20 0
-4 -6 -20 0
4 15 21 0
-4 -15 -21 0
5 7 20 0
-5 -7 -20 0
5 16 21 0
-5 -16 -21 0
6 8 20 0
-6 -8 -20 0
6 17 21 0
-6 -17 -21 0
7 9 20 0
-7 -9 -20 0
7 18 21 0
-7 -18 -21 0
1 8 19 0
-1 -8 -19 0
8 10 20 0
-8 -10 -20 0
8 19 21 0
-8 -19 -21 0
2 9 19 0
-2 -9 -19 0
9 11 20 0
-9 -11 -20 0
9 20 21 0
-9 -20 -21 0
3 10 19 0
-3 -10 -19 0
10 12 20 0
-10 -12 -20 0
10 21 0
-10 -21 0
4 11 19 0
-4 -11 -19 0
11 13 20 0
-11 -13 -20 0
5 12 19 0
-5 -12 -19 0
12 14 20 0
-12 -14 -20 0
6 13 19 0
-6 -13 -19 0
13 15 20 0
-13 -15 -20 0
7 14 19 0
-7 -14 -19 0
14 16 20 0
-14 -16 -20 0
8 15 19 0
-8 -15 -19 0
15 17 20 0
-15 -17 -20 0
9 16 19 0
-9 -16 -19 0
16 18 20 0
-16 -18 -20 0
1 17 18 0
-1 -17 -18 0
10 17 19 0
-10 -17 -19 0
17 19 20 0
-17 -19 -20 0
2 18 0
-2 -18 0
11 18 19 0
-11 -18 -19 0
18 20 0
-18 -20 0
3 18 19 0
-3 -18 -19 0
12 19 0
-12 -19 0
19 20 21 0
-19 -20 -21 0
4 18 20 0
-4 -18 -20 0
13 19 20 0
-13 -19 -20 0
5 18 21 0
-5 -18 -21 0
14 19 21 0
-14 -19 -21 0
