certificates/rado_a9_c178_N21.drat
-20 -21 0
-21 0
10 0
20 0
-18 0
-8 0
-12 0
2 0
7 0
5 0
19 0
1 0
-4 0
0
